258611 59 6
20 37 8
5 61 7
11 72 10
7 61 1
18 96 7
6 21 9
8 74 4
18 21 4
6 41 6
3 89 4
11 74 8
16 61 8
18 39 8
10 69 5
14 65 4
10 34 5
12 21 10
18 63 3
2 31 4
9 60 6
11 100 10
18 64 8
17 70 3
15 30 9
2 73 9
5 31 2
16 23 10
19 52 4
2 29 10
16 39 3
16 45 7
2 71 4
20 13 3
14 34 2
5 43 7
19 42 6
12 37 3
13 20 10
8 18 7
14 19 9
6 66 8
8 34 5
12 50 7
1 88 2
12 95 6
2 57 2
11 76 9
4 48 7
8 53 9
17 51 6
3 94 6
11 95 4
5 56 5
8 94 2
1 14 7
8 100 7
3 58 10
15 36 8
4 32 6
20 17 10
14 21 9
6 84 1
13 37 4
10 70 4
14 39 1
20 46 10
17 40 6
8 81 6
2 11 9
4 20 3
16 28 1
4 47 10
13 85 8
17 10 9
18 79 5
8 12 10
3 14 7
1 58 9
11 60 1
